132
86
42
74
67
2
121
50
64
15
61
22
64
7
42
74
71
25
49
28
111
87
80
35
41
91
42
99
61
64
126
72
131
128
43
42
87
24
76
55
69
108
11
35
50
15
11
108
56
42
132
69
61
89
59
30
4
83
1
71
113
99
30
95
50
82
98
105
126
55
43
122
27
109
128
14
10
85
48
76
105
94
16
103
43
19
100
4
65
120
93
30
117
29
76
99
56
4
15
87
